g3 0 1 0	# problem arglinb
 10 0 1 0 0	# vars, constraints, objectives, ranges, eqns
 0 1	# nonlinear constraints, objectives
 0 0	# network constraints: nonlinear, linear
 0 10 0	# nonlinear vars in constraints, objectives, both
 0 0 0 1	# linear network variables; functions; arith, flags
 0 0 0 0 0	# discrete variables: binary, integer, nonlinear (b,c,o)
 0 10	# nonzeros in Jacobian, gradients
 1 5	# max name lengths: constraints, variables
 0 0 0 0 0	# common exprs: b,c,o,c1,o1
O0 0
o54
20
o5
o1
o54
10
v0
o2
n2
v1
o2
n3
v2
o2
n4
v3
o2
n5
v4
o2
n6
v5
o2
n7
v6
o2
n8
v7
o2
n9
v8
o2
n10
v9
n1
n2
o5
o1
o54
10
o2
n2
v0
o2
n2
o2
n2
v1
o2
n3
o2
n2
v2
o2
n4
o2
n2
v3
o2
n5
o2
n2
v4
o2
n6
o2
n2
v5
o2
n7
o2
n2
v6
o2
n8
o2
n2
v7
o2
n9
o2
n2
v8
o2
n10
o2
n2
v9
n1
n2
o5
o1
o54
10
o2
n3
v0
o2
n2
o2
n3
v1
o2
n3
o2
n3
v2
o2
n4
o2
n3
v3
o2
n5
o2
n3
v4
o2
n6
o2
n3
v5
o2
n7
o2
n3
v6
o2
n8
o2
n3
v7
o2
n9
o2
n3
v8
o2
n10
o2
n3
v9
n1
n2
o5
o1
o54
10
o2
n4
v0
o2
n2
o2
n4
v1
o2
n3
o2
n4
v2
o2
n4
o2
n4
v3
o2
n5
o2
n4
v4
o2
n6
o2
n4
v5
o2
n7
o2
n4
v6
o2
n8
o2
n4
v7
o2
n9
o2
n4
v8
o2
n10
o2
n4
v9
n1
n2
o5
o1
o54
10
o2
n5
v0
o2
n2
o2
n5
v1
o2
n3
o2
n5
v2
o2
n4
o2
n5
v3
o2
n5
o2
n5
v4
o2
n6
o2
n5
v5
o2
n7
o2
n5
v6
o2
n8
o2
n5
v7
o2
n9
o2
n5
v8
o2
n10
o2
n5
v9
n1
n2
o5
o1
o54
10
o2
n6
v0
o2
n2
o2
n6
v1
o2
n3
o2
n6
v2
o2
n4
o2
n6
v3
o2
n5
o2
n6
v4
o2
n6
o2
n6
v5
o2
n7
o2
n6
v6
o2
n8
o2
n6
v7
o2
n9
o2
n6
v8
o2
n10
o2
n6
v9
n1
n2
o5
o1
o54
10
o2
n7
v0
o2
n2
o2
n7
v1
o2
n3
o2
n7
v2
o2
n4
o2
n7
v3
o2
n5
o2
n7
v4
o2
n6
o2
n7
v5
o2
n7
o2
n7
v6
o2
n8
o2
n7
v7
o2
n9
o2
n7
v8
o2
n10
o2
n7
v9
n1
n2
o5
o1
o54
10
o2
n8
v0
o2
n2
o2
n8
v1
o2
n3
o2
n8
v2
o2
n4
o2
n8
v3
o2
n5
o2
n8
v4
o2
n6
o2
n8
v5
o2
n7
o2
n8
v6
o2
n8
o2
n8
v7
o2
n9
o2
n8
v8
o2
n10
o2
n8
v9
n1
n2
o5
o1
o54
10
o2
n9
v0
o2
n2
o2
n9
v1
o2
n3
o2
n9
v2
o2
n4
o2
n9
v3
o2
n5
o2
n9
v4
o2
n6
o2
n9
v5
o2
n7
o2
n9
v6
o2
n8
o2
n9
v7
o2
n9
o2
n9
v8
o2
n10
o2
n9
v9
n1
n2
o5
o1
o54
10
o2
n10
v0
o2
n2
o2
n10
v1
o2
n3
o2
n10
v2
o2
n4
o2
n10
v3
o2
n5
o2
n10
v4
o2
n6
o2
n10
v5
o2
n7
o2
n10
v6
o2
n8
o2
n10
v7
o2
n9
o2
n10
v8
o2
n10
o2
n10
v9
n1
n2
o5
o1
o54
10
o2
n11
v0
o2
n2
o2
n11
v1
o2
n3
o2
n11
v2
o2
n4
o2
n11
v3
o2
n5
o2
n11
v4
o2
n6
o2
n11
v5
o2
n7
o2
n11
v6
o2
n8
o2
n11
v7
o2
n9
o2
n11
v8
o2
n10
o2
n11
v9
n1
n2
o5
o1
o54
10
o2
n12
v0
o2
n2
o2
n12
v1
o2
n3
o2
n12
v2
o2
n4
o2
n12
v3
o2
n5
o2
n12
v4
o2
n6
o2
n12
v5
o2
n7
o2
n12
v6
o2
n8
o2
n12
v7
o2
n9
o2
n12
v8
o2
n10
o2
n12
v9
n1
n2
o5
o1
o54
10
o2
n13
v0
o2
n2
o2
n13
v1
o2
n3
o2
n13
v2
o2
n4
o2
n13
v3
o2
n5
o2
n13
v4
o2
n6
o2
n13
v5
o2
n7
o2
n13
v6
o2
n8
o2
n13
v7
o2
n9
o2
n13
v8
o2
n10
o2
n13
v9
n1
n2
o5
o1
o54
10
o2
n14
v0
o2
n2
o2
n14
v1
o2
n3
o2
n14
v2
o2
n4
o2
n14
v3
o2
n5
o2
n14
v4
o2
n6
o2
n14
v5
o2
n7
o2
n14
v6
o2
n8
o2
n14
v7
o2
n9
o2
n14
v8
o2
n10
o2
n14
v9
n1
n2
o5
o1
o54
10
o2
n15
v0
o2
n2
o2
n15
v1
o2
n3
o2
n15
v2
o2
n4
o2
n15
v3
o2
n5
o2
n15
v4
o2
n6
o2
n15
v5
o2
n7
o2
n15
v6
o2
n8
o2
n15
v7
o2
n9
o2
n15
v8
o2
n10
o2
n15
v9
n1
n2
o5
o1
o54
10
o2
n16
v0
o2
n2
o2
n16
v1
o2
n3
o2
n16
v2
o2
n4
o2
n16
v3
o2
n5
o2
n16
v4
o2
n6
o2
n16
v5
o2
n7
o2
n16
v6
o2
n8
o2
n16
v7
o2
n9
o2
n16
v8
o2
n10
o2
n16
v9
n1
n2
o5
o1
o54
10
o2
n17
v0
o2
n2
o2
n17
v1
o2
n3
o2
n17
v2
o2
n4
o2
n17
v3
o2
n5
o2
n17
v4
o2
n6
o2
n17
v5
o2
n7
o2
n17
v6
o2
n8
o2
n17
v7
o2
n9
o2
n17
v8
o2
n10
o2
n17
v9
n1
n2
o5
o1
o54
10
o2
n18
v0
o2
n2
o2
n18
v1
o2
n3
o2
n18
v2
o2
n4
o2
n18
v3
o2
n5
o2
n18
v4
o2
n6
o2
n18
v5
o2
n7
o2
n18
v6
o2
n8
o2
n18
v7
o2
n9
o2
n18
v8
o2
n10
o2
n18
v9
n1
n2
o5
o1
o54
10
o2
n19
v0
o2
n2
o2
n19
v1
o2
n3
o2
n19
v2
o2
n4
o2
n19
v3
o2
n5
o2
n19
v4
o2
n6
o2
n19
v5
o2
n7
o2
n19
v6
o2
n8
o2
n19
v7
o2
n9
o2
n19
v8
o2
n10
o2
n19
v9
n1
n2
o5
o1
o54
10
o2
n20
v0
o2
n2
o2
n20
v1
o2
n3
o2
n20
v2
o2
n4
o2
n20
v3
o2
n5
o2
n20
v4
o2
n6
o2
n20
v5
o2
n7
o2
n20
v6
o2
n8
o2
n20
v7
o2
n9
o2
n20
v8
o2
n10
o2
n20
v9
n1
n2
x10
0 1
1 1
2 1
3 1
4 1
5 1
6 1
7 1
8 1
9 1
b
3
3
3
3
3
3
3
3
3
3
k9
0
0
0
0
0
0
0
0
0
G0 10
0 0
1 0
2 0
3 0
4 0
5 0
6 0
7 0
8 0
9 0
